instances/in_30_15_6_1.lp
#const n = 30.
#const k = 15.
#const h = 6.
tile(1,11,10).
tile(2,7,1).
tile(3,5,7).
tile(4,15,1).
tile(5,3,6).
tile(6,3,2).
tile(7,5,10).
tile(8,4,1).
tile(9,15,10).
tile(10,5,9).
tile(11,10,13).
tile(12,8,1).
tile(13,1,3).
tile(14,7,10).
tile(15,13,10).
tile(16,12,2).
tile(17,12,8).
tile(18,12,5).
tile(19,11,8).
tile(20,9,8).
tile(21,9,11).
tile(22,2,5).
tile(23,15,8).
tile(24,8,15).
tile(25,2,14).
tile(26,11,9).
tile(27,14,12).
tile(28,8,12).
tile(29,8,1).
tile(30,7,11).
