minizinc/input/in_30_15_6_1.dzn
n = 30;
k = 15;
h = 6;
tiles = array2d(1..n, 1..2,
[ 11,10
, 7,1
, 5,7
, 15,1
, 3,6
, 3,2
, 5,10
, 4,1
, 15,10
, 5,9
, 10,13
, 8,1
, 1,3
, 7,10
, 13,10
, 12,2
, 12,8
, 12,5
, 11,8
, 9,8
, 9,11
, 2,5
, 15,8
, 8,15
, 2,14
, 11,9
, 14,12
, 8,12
, 8,1
, 7,11
]);